125 20
3
7 92 75 61 19 79 2 92 13 96 60 68 15 5 14 82 13 2 78 95 3 21 83 33 91 58 49 86 26 53 43 48 78 52 1 98 63 46 66 15 44 69 23 65 80 5 94 1 98 32 35 32 5 63 77 90 6 76 91 75 1 29 12 66 80 95 77 54 43 39 71 75 17 81 74 84 47 13 90 79 98 54 11 99 28 19 64 13 91 19 70 8 82 25 25 86 75 48 51 28 94 24 0 56 60 57 51 42 57 29 49 82 77 84 22 23 41 63 4 77 35 84 16 87 16
708 585 961 606 519 760 858 993 814 1017 1207 863 883 800 870 793 760 582 809 679
0 0 0 0 0 60 0 0 0 0 0 0 0 0 0 0 50 0 0 99 0 78 0 0 0 0 0 0 0 0 0 0 0 0 0 0 0 0 31 88 88 0 0 0 0 84 0 0 0 0 0 0 0 0 0 38 0 0 0 0 0 0 0 0 10 0 0 43 36 0 0 0 0 0 0 0 0 0 0 0 0 0 0 0 0 40 0 0 0 0 0 0 0 0 0 0 0 0 0 0 0 0 0 0 0 0 0 0 0 0 0 0 0 0 0 0 0 75 0 0 0 0 82 0 0
0 0 0 0 0 0 0 0 0 0 0 0 0 91 0 0 0 0 0 0 0 0 0 98 0 0 0 0 0 0 0 0 0 0 0 0 0 0 0 0 0 0 0 0 0 0 0 0 0 0 0 0 0 0 0 0 0 0 0 0 0 0 18 0 0 8 0 0 92 0 78 0 0 0 0 0 0 0 0 0 0 0 0 0 0 0 73 0 0 0 0 12 0 0 0 0 10 0 0 0 0 7 0 0 0 32 0 0 0 87 32 0 0 0 6 5 0 0 0 0 0 73 35 0 28
0 0 0 0 0 0 0 0 77 0 0 11 0 0 0 0 0 0 0 0 0 0 74 0 0 0 0 0 75 0 0 0 0 0 0 36 91 0 0 0 0 19 0 0 0 19 0 0 34 0 0 0 0 0 0 0 97 0 0 0 0 0 0 0 0 0 0 0 0 0 77 0 0 0 0 0 34 0 0 0 0 57 0 0 0 0 0 0 0 0 22 59 0 0 0 0 59 39 0 6 0 0 0 0 63 78 0 98 0 0 0 0 0 0 87 81 0 0 0 0 0 0 0 0 0
0 0 0 0 0 0 0 0 0 0 0 0 0 0 0 0 0 0 0 0 0 0 53 0 0 0 0 0 0 0 0 22 0 0 0 13 20 0 0 0 0 0 0 0 0 0 0 0 0 0 0 0 0 0 0 0 0 0 0 0 0 0 49 0 0 0 49 0 40 0 0 0 0 0 0 64 0 0 0 0 0 0 66 0 0 0 0 0 0 0 0 0 0 0 86 0 0 62 55 0 0 0 0 0 0 0 0 60 10 0 0 0 63 0 0 0 0 0 0 0 0 0 83 0 0
0 42 0 28 0 0 6 63 0 0 0 78 23 0 0 0 91 0 0 0 0 37 0 0 0 0 0 0 0 0 7 0 0 0 0 0 0 0 74 0 0 0 0 8 0 0 0 0 0 0 0 45 0 0 0 0 0 0 0 0 0 0 0 0 0 0 0 0 0 92 0 0 22 0 0 0 0 0 0 89 0 0 0 0 0 45 0 0 0 0 0 0 45 0 0 0 0 0 0 0 0 0 0 0 0 0 0 0 0 0 0 0 0 0 0 0 0 0 0 0 0 0 0 0 0
0 65 0 0 0 15 0 0 0 0 0 0 4 0 0 0 0 0 0 0 0 0 0 0 68 0 0 0 0 0 0 0 0 0 0 0 81 0 0 0 0 0 0 0 0 0 0 0 0 0 0 0 87 0 57 0 0 0 0 0 0 32 94 0 0 0 0 0 0 28 0 6 0 0 0 0 65 0 3 43 0 0 0 0 0 69 0 0 85 56 0 0 0 0 0 94 0 0 0 0 0 0 0 0 0 0 0 0 0 0 0 0 0 44 0 0 0 0 0 20 97 0 0 0 0
0 0 0 0 0 52 0 0 0 54 84 0 0 77 0 0 0 0 34 0 66 0 0 0 0 41 0 0 0 0 0 0 0 0 0 0 0 9 74 0 30 0 0 0 0 21 0 0 0 0 0 0 0 0 0 0 64 0 0 65 0 0 0 0 0 0 24 0 0 0 93 0 19 0 0 88 0 0 0 92 0 0 0 47 0 0 0 0 0 0 0 0 0 0 0 0 0 0 0 0 0 0 0 0 17 0 0 3 0 96 0 0 0 18 20 0 0 0 0 0 64 0 0 0 0
0 0 0 0 0 0 0 23 60 21 0 0 50 0 0 0 0 0 0 0 0 0 0 0 0 0 0 0 0 0 73 0 0 0 9 0 0 0 0 0 0 0 0 0 0 0 65 70 0 0 0 0 40 0 0 0 0 51 0 0 0 0 0 0 0 0 60 0 0 0 93 0 0 0 0 0 0 86 0 67 89 2 0 0 0 0 0 0 0 0 0 0 0 0 0 0 0 71 0 0 0 0 61 53 18 42 68 0 0 0 78 0 0 0 0 0 0 18 0 91 30 0 0 0 0
0 0 0 0 5 0 0 0 61 0 0 0 0 0 0 0 0 0 0 0 0 24 0 0 0 0 69 64 0 97 0 0 0 23 0 0 0 0 0 0 0 0 0 0 0 0 0 0 0 0 0 0 0 0 0 0 0 0 0 0 0 0 0 0 0 0 0 0 0 0 0 78 0 0 0 0 0 0 0 9 66 0 0 0 0 0 0 0 0 92 87 0 0 0 0 0 0 0 0 0 0 99 0 0 0 0 0 0 0 77 0 0 0 56 0 79 0 0 30 0 13 92 0 0 0
29 0 78 0 0 0 0 0 0 0 0 77 0 0 0 0 0 0 0 35 0 0 76 0 98 55 0 0 35 0 32 0 0 0 0 0 0 0 0 0 0 0 0 53 93 0 0 0 0 80 23 22 0 0 0 55 0 79 69 0 0 0 0 0 0 0 0 53 0 0 0 68 58 0 0 0 0 0 0 0 0 0 0 0 0 0 0 0 1 0 0 6 0 0 35 32 0 0 96 34 0 34 0 0 0 0 18 0 51 0 0 0 0 0 0 0 0 0 0 0 0 20 0 0 0
0 0 0 0 0 0 0 75 51 38 0 0 0 0 0 0 0 33 0 35 79 35 0 0 0 0 0 0 0 0 0 85 84 56 0 0 0 55 0 0 0 93 90 0 19 2 0 13 86 0 69 35 0 53 0 0 0 0 0 0 0 0 0 60 0 0 0 5 0 0 98 0 0 0 0 0 0 0 0 0 0 0 0 0 98 0 0 50 0 47 0 0 0 0 0 24 0 0 0 0 0 0 0 0 0 0 0 0 29 0 16 0 0 0 64 0 51 38 0 0 33 0 0 24 86
0 80 81 0 0 0 0 12 0 43 0 0 0 0 0 0 76 0 0 0 0 0 0 0 0 0 0 0 0 0 0 0 0 0 0 0 0 49 0 51 0 0 0 0 0 0 0 0 0 0 0 0 0 43 0 0 0 57 0 0 0 0 0 41 0 0 17 0 0 92 0 0 0 0 0 79 30 0 0 0 0 81 70 40 0 0 0 0 0 0 0 44 0 0 0 11 0 0 0 0 0 0 0 0 37 12 0 21 0 0 0 0 0 0 89 0 0 0 0 0 0 60 0 0 0
0 0 0 0 44 0 45 0 0 0 0 0 0 0 0 0 0 0 0 81 0 0 0 0 0 0 0 0 0 0 0 0 0 0 0 0 0 0 0 0 19 41 0 73 63 47 0 0 0 84 0 0 41 0 0 17 0 0 47 0 0 70 0 0 0 0 0 0 0 0 0 53 0 69 0 0 0 0 0 0 85 0 0 0 0 0 0 0 0 0 0 29 0 0 0 0 0 28 0 0 0 0 0 0 33 0 0 0 0 81 0 82 0 7 0 0 0 0 0 0 25 0 64 74 0
0 0 0 75 0 17 0 0 0 0 0 0 0 0 0 0 0 0 38 0 34 18 0 0 0 0 5 0 0 0 0 0 0 15 0 0 0 0 0 61 0 0 0 0 0 48 99 0 0 0 89 14 0 24 27 0 0 0 0 0 0 0 0 0 0 0 0 0 13 0 0 0 0 75 0 0 0 0 0 0 0 0 0 87 0 0 0 31 0 46 78 0 0 0 0 0 0 0 89 0 0 0 23 0 0 0 0 85 0 0 89 0 0 0 0 0 0 0 0 0 0 0 0 0 0
0 0 0 0 0 0 0 0 0 0 7 0 0 36 0 53 0 0 0 0 0 55 0 39 0 0 90 28 0 0 0 0 0 57 0 85 0 57 36 0 0 0 53 0 84 0 0 0 0 0 0 0 0 0 0 0 0 0 0 0 80 83 0 0 0 0 0 0 45 0 0 0 0 90 0 0 0 0 0 0 0 0 0 0 0 0 0 0 44 0 28 0 0 0 0 68 0 26 0 0 0 0 0 0 0 0 0 0 0 0 46 0 0 0 0 0 0 38 0 0 0 0 0 0 75
0 21 0 0 0 0 0 0 0 0 0 0 46 0 0 0 0 0 0 89 72 89 0 0 24 0 0 0 0 0 0 76 0 0 0 0 0 0 0 0 0 0 0 77 16 0 67 0 0 0 0 0 0 0 0 0 0 0 79 0 0 0 0 0 0 0 0 0 69 0 0 0 0 0 0 0 0 0 0 0 90 0 14 52 0 0 0 0 0 0 0 0 0 0 0 0 0 0 0 0 0 0 0 6 0 0 75 0 0 0 0 58 59 0 0 0 0 0 0 0 0 0 0 0 0
0 0 0 0 69 0 65 0 0 7 0 0 0 44 85 0 0 0 0 0 84 0 0 0 0 0 0 0 0 0 0 29 0 29 0 0 0 0 0 0 0 0 0 68 16 0 56 0 0 0 96 0 0 0 0 0 0 0 0 0 0 0 0 83 0 0 0 0 0 23 0 0 0 0 0 0 0 0 0 0 0 0 0 17 0 0 0 0 0 0 0 0 0 0 0 0 0 0 0 42 0 0 28 0 89 0 0 0 0 0 0 0 0 0 0 0 0 0 0 93 0 0 98 0 0
0 0 4 0 53 0 0 0 0 0 0 0 0 0 0 0 0 0 0 0 0 0 0 0 49 0 0 0 0 0 0 0 33 0 0 0 0 0 0 14 66 0 0 0 0 0 0 0 0 0 0 0 60 0 0 0 0 0 0 74 0 0 0 0 0 0 0 0 0 0 0 0 0 0 0 0 0 0 0 0 0 0 0 0 0 55 0 0 0 0 0 0 0 0 31 0 12 26 0 0 39 0 0 0 0 0 0 0 0 29 0 61 0 0 0 77 50 0 33 0 0 10 0 0 0
0 0 0 0 0 0 0 0 0 0 0 0 0 0 13 0 0 0 0 0 0 0 0 0 0 0 0 0 0 0 0 36 0 0 63 86 0 0 0 0 0 21 30 0 63 61 42 0 0 0 0 0 0 0 0 0 35 0 0 0 0 0 33 0 0 0 0 50 7 0 0 0 0 94 95 94 0 0 0 20 0 0 0 0 0 0 81 94 0 0 0 0 0 0 6 0 0 0 0 0 0 0 0 0 0 0 0 71 0 0 0 0 0 0 0 0 0 0 0 0 0 0 0 0 22
64 0 0 0 0 0 6 0 0 0 0 0 0 0 51 0 0 0 0 0 0 0 0 0 0 0 0 0 0 0 0 0 0 0 0 0 0 0 0 0 0 0 0 0 36 0 56 0 71 0 0 0 0 0 56 77 0 0 0 0 22 0 0 0 0 0 0 0 0 0 0 0 0 0 28 0 0 0 3 0 0 0 73 57 0 0 0 5 5 0 0 46 0 0 60 0 0 0 2 0 0 0 0 0 31 0 0 0 93 0 0 53 56 0 0 0 0 0 0 0 0 0 0 0 0
0 0 0 0 0 13 0 0 0 0 0 0 0 0 0 0 7 0 0 72 0 48 0 0 0 0 0 0 0 0 0 0 0 0 0 0 0 0 13 72 75 0 0 0 0 60 0 0 0 0 0 0 0 0 0 9 0 0 0 0 0 0 0 0 0 0 0 36 0 0 0 0 0 0 0 0 0 0 0 0 0 0 0 0 0 3 0 0 0 0 0 0 0 0 0 0 0 0 0 0 0 0 0 0 0 0 0 0 0 0 0 0 0 0 0 0 0 73 0 0 0 0 20 0 0
0 0 0 0 0 0 0 0 0 0 0 0 0 1 0 0 0 0 0 0 0 0 0 60 0 0 0 0 0 0 0 0 0 0 0 0 0 0 0 0 0 0 0 0 0 0 0 0 0 0 0 0 0 0 0 0 0 0 0 0 0 0 6 0 0 1 0 0 67 0 31 0 0 0 0 0 0 0 0 0 0 0 0 0 0 0 4 0 0 0 0 10 0 0 0 0 6 0 0 0 0 5 0 0 0 14 0 0 0 81 10 0 0 0 3 2 0 0 0 0 0 9 19 0 2
0 0 0 0 0 0 0 0 74 0 0 1 0 0 0 0 0 0 0 0 0 0 55 0 0 0 0 0 64 0 0 0 0 0 0 19 10 0 0 0 0 7 0 0 0 14 0 0 24 0 0 0 0 0 0 0 90 0 0 0 0 0 0 0 0 0 0 0 0 0 76 0 0 0 0 0 18 0 0 0 0 35 0 0 0 0 0 0 0 0 4 51 0 0 0 0 27 16 0 4 0 0 0 0 54 45 0 6 0 0 0 0 0 0 78 3 0 0 0 0 0 0 0 0 0
0 0 0 0 0 0 0 0 0 0 0 0 0 0 0 0 0 0 0 0 0 0 12 0 0 0 0 0 0 0 0 8 0 0 0 12 13 0 0 0 0 0 0 0 0 0 0 0 0 0 0 0 0 0 0 0 0 0 0 0 0 0 7 0 0 0 1 0 38 0 0 0 0 0 0 20 0 0 0 0 0 0 54 0 0 0 0 0 0 0 0 0 0 0 73 0 0 25 35 0 0 0 0 0 0 0 0 51 2 0 0 0 0 0 0 0 0 0 0 0 0 0 65 0 0
0 10 0 10 0 0 0 6 0 0 0 33 18 0 0 0 0 0 0 0 0 2 0 0 0 0 0 0 0 0 4 0 0 0 0 0 0 0 3 0 0 0 0 5 0 0 0 0 0 0 0 14 0 0 0 0 0 0 0 0 0 0 0 0 0 0 0 0 0 3 0 0 19 0 0 0 0 0 0 51 0 0 0 0 0 4 0 0 0 0 0 0 42 0 0 0 0 0 0 0 0 0 0 0 0 0 0 0 0 0 0 0 0 0 0 0 0 0 0 0 0 0 0 0 0
0 5 0 0 0 1 0 0 0 0 0 0 3 0 0 0 0 0 0 0 0 0 0 0 51 0 0 0 0 0 0 0 0 0 0 0 27 0 0 0 0 0 0 0 0 0 0 0 0 0 0 0 30 0 49 0 0 0 0 0 0 16 41 0 0 0 0 0 0 11 0 3 0 0 0 0 16 0 0 16 0 0 0 0 0 23 0 0 62 3 0 0 0 0 0 13 0 0 0 0 0 0 0 0 0 0 0 0 0 0 0 0 0 12 0 0 0 0 0 19 65 0 0 0 0
0 0 0 0 0 18 0 0 0 27 33 0 0 31 0 0 0 0 29 0 6 0 0 0 0 30 0 0 0 0 0 0 0 0 0 0 0 8 51 0 27 0 0 0 0 4 0 0 0 0 0 0 0 0 0 0 63 0 0 26 0 0 0 0 0 0 16 0 0 0 6 0 11 0 0 54 0 0 0 57 0 0 0 25 0 0 0 0 0 0 0 0 0 0 0 0 0 0 0 0 0 0 0 0 0 0 0 1 0 11 0 0 0 14 11 0 0 0 0 0 58 0 0 0 0
0 0 0 0 0 0 0 11 45 17 0 0 44 0 0 0 0 0 0 0 0 0 0 0 0 0 0 0 0 0 56 0 0 0 8 0 0 0 0 0 0 0 0 0 0 0 12 33 0 0 0 0 8 0 0 0 0 33 0 0 0 0 0 0 0 0 1 0 0 0 57 0 0 0 0 0 0 84 0 51 14 1 0 0 0 0 0 0 0 0 0 0 0 0 0 0 0 65 0 0 0 0 53 46 7 31 21 0 0 0 71 0 0 0 0 0 0 11 0 29 10 0 0 0 0
0 0 0 0 0 0 0 0 42 0 0 0 0 0 0 0 0 0 0 0 0 11 0 0 0 0 17 22 0 27 0 0 0 17 0 0 0 0 0 0 0 0 0 0 0 0 0 0 0 0 0 0 0 0 0 0 0 0 0 0 0 0 0 0 0 0 0 0 0 0 0 65 0 0 0 0 0 0 0 5 33 0 0 0 0 0 0 0 0 12 15 0 0 0 0 0 0 0 0 0 0 83 0 0 0 0 0 0 0 19 0 0 0 34 0 68 0 0 18 0 10 77 0 0 0
12 0 55 0 0 0 0 0 0 0 0 2 0 0 0 0 0 0 0 33 0 0 29 0 28 9 0 0 28 0 13 0 0 0 0 0 0 0 0 0 0 0 0 43 63 0 0 0 0 3 20 12 0 0 0 54 0 42 11 0 0 0 0 0 0 0 0 44 0 0 0 62 57 0 0 0 0 0 0 0 0 0 0 0 0 0 0 0 0 0 0 0 0 0 29 28 0 0 56 13 0 7 0 0 0 0 4 0 14 0 0 0 0 0 0 0 0 0 0 0 0 2 0 0 0
0 0 0 0 0 0 0 44 45 20 0 0 0 0 0 0 0 18 0 34 11 4 0 0 0 0 0 0 0 0 0 13 46 29 0 0 0 0 0 0 0 81 20 0 13 1 0 2 69 0 1 29 0 33 0 0 0 0 0 0 0 0 0 42 0 0 0 2 0 0 16 0 0 0 0 0 0 0 0 0 0 0 0 0 77 0 0 36 0 14 0 0 0 0 0 0 0 0 0 0 0 0 0 0 0 0 0 0 14 0 3 0 0 0 15 0 33 11 0 0 32 0 0 7 76
0 11 18 0 0 0 0 3 0 21 0 0 0 0 0 0 10 0 0 0 0 0 0 0 0 0 0 0 0 0 0 0 0 0 0 0 0 46 0 30 0 0 0 0 0 0 0 0 0 0 0 0 0 23 0 0 0 54 0 0 0 0 0 21 0 0 7 0 0 60 0 0 0 0 0 61 16 0 0 0 0 67 6 32 0 0 0 0 0 0 0 18 0 0 0 9 0 0 0 0 0 0 0 0 8 4 0 0 0 0 0 0 0 0 72 0 0 0 0 0 0 47 0 0 0
0 0 0 0 18 0 2 0 0 0 0 0 0 0 0 0 0 0 0 48 0 0 0 0 0 0 0 0 0 0 0 0 0 0 0 0 0 0 0 0 5 23 0 47 5 42 0 0 0 41 0 0 10 0 0 9 0 0 5 0 0 61 0 0 0 0 0 0 0 0 0 1 0 64 0 0 0 0 0 0 37 0 0 0 0 0 0 0 0 0 0 8 0 0 0 0 0 18 0 0 0 0 0 0 1 0 0 0 0 55 0 40 0 4 0 0 0 0 0 0 3 0 13 22 0
0 0 0 61 0 3 0 0 0 0 0 0 0 0 0 0 0 0 28 0 21 3 0 0 0 0 1 0 0 0 0 0 0 10 0 0 0 0 0 16 0 0 0 0 0 30 4 0 0 0 26 11 0 13 21 0 0 0 0 0 0 0 0 0 0 0 0 0 7 0 0 0 0 24 0 0 0 0 0 0 0 0 0 65 0 0 0 1 0 36 29 0 0 0 0 0 0 0 51 0 0 0 14 0 0 0 0 17 0 0 44 0 0 0 0 0 0 0 0 0 0 0 0 0 0
0 0 0 0 0 0 0 0 0 0 6 0 0 9 0 21 0 0 0 0 0 53 0 33 0 0 18 23 0 0 0 0 0 34 0 33 0 27 26 0 0 0 5 0 60 0 0 0 0 0 0 0 0 0 0 0 0 0 0 0 18 18 0 0 0 0 0 0 11 0 0 0 0 52 0 0 0 0 0 0 0 0 0 0 0 0 0 0 39 0 14 0 0 0 0 41 0 11 0 0 0 0 0 0 0 0 0 0 0 0 22 0 0 0 0 0 0 25 0 0 0 0 0 0 24
0 17 0 0 0 0 0 0 0 0 0 0 7 0 0 0 0 0 0 13 22 71 0 0 4 0 0 0 0 0 0 49 0 0 0 0 0 0 0 0 0 0 0 56 13 0 48 0 0 0 0 0 0 0 0 0 0 0 77 0 0 0 0 0 0 0 0 0 47 0 0 0 0 0 0 0 0 0 0 0 56 0 11 31 0 0 0 0 0 0 0 0 0 0 0 0 0 0 0 0 0 0 0 3 0 0 18 0 0 0 0 32 30 0 0 0 0 0 0 0 0 0 0 0 0
0 0 0 0 1 0 22 0 0 6 0 0 0 36 2 0 0 0 0 0 57 0 0 0 0 0 0 0 0 0 0 17 0 6 0 0 0 0 0 0 0 0 0 26 4 0 22 0 0 0 36 0 0 0 0 0 0 0 0 0 0 0 0 48 0 0 0 0 0 21 0 0 0 0 0 0 0 0 0 0 0 0 0 15 0 0 0 0 0 0 0 0 0 0 0 0 0 0 0 40 0 0 13 0 15 0 0 0 0 0 0 0 0 0 0 0 0 0 0 1 0 0 70 0 0
0 0 0 0 14 0 0 0 0 0 0 0 0 0 0 0 0 0 0 0 0 0 0 0 48 0 0 0 0 0 0 0 21 0 0 0 0 0 0 10 65 0 0 0 0 0 0 0 0 0 0 0 10 0 0 0 0 0 0 26 0 0 0 0 0 0 0 0 0 0 0 0 0 0 0 0 0 0 0 0 0 0 0 0 0 48 0 0 0 0 0 0 0 0 4 0 7 22 0 0 6 0 0 0 0 0 0 0 0 1 0 32 0 0 0 61 32 0 11 0 0 0 0 0 0
0 0 0 0 0 0 0 0 0 0 0 0 0 0 3 0 0 0 0 0 0 0 0 0 0 0 0 0 0 0 0 19 0 0 23 60 0 0 0 0 0 14 15 0 20 13 33 0 0 0 0 0 0 0 0 0 31 0 0 0 0 0 17 0 0 0 0 8 4 0 0 0 0 39 83 55 0 0 0 0 0 0 0 0 0 0 19 64 0 0 0 0 0 0 4 0 0 0 0 0 0 0 0 0 0 0 0 65 0 0 0 0 0 0 0 0 0 0 0 0 0 0 0 0 5
12 0 0 0 0 0 1 0 0 0 0 0 0 0 30 0 0 0 0 0 0 0 0 0 0 0 0 0 0 0 0 0 0 0 0 0 0 0 0 0 0 0 0 0 12 0 6 0 64 0 0 0 0 0 20 41 0 0 0 0 8 0 0 0 0 0 0 0 0 0 0 0 0 0 4 0 0 0 2 0 0 0 38 45 0 0 0 4 4 0 0 21 0 0 0 0 0 0 0 0 0 0 0 0 15 0 0 0 77 0 0 21 20 0 0 0 0 0 0 0 0 0 0 0 0
